Route #1: 46 20 38 3 29 8 25 50 53 55 18 57 13 34 10 2 4 7 33 41 32 35 44 40 19 15 24 51 28 14 17 21 30 48 16 52
Route #2: 54 6 9 27 39 11 56 31 37 47 23 49
Route #3: 12 26 45 43 42 22 5 36
Route #4: 1
Route #5: 
Route #6: 
Route #7: 
Route #8: 
Route #9: 
cost 2130.6779817062334
